%NPROCSHARED=1
%MEM=1000MB
%CHK=test.2.chk
%OLDCHK=test.1.chk
#P CAM-B3LYP/6-31++G** guess=read nosymm gfinput gfprint force charge guess=huckel punch=derivatives iop(3/33=1,6/7=3) prop(field,read) pop=esp

QM part of step 2

1 1
N     46.563014    85.497271    31.147148
H     47.707365    84.561115    30.164520
H     47.178467    86.569063    30.886907
H     50.097390    86.477162    30.948370
C     47.853707    85.782470    32.590646
H     48.807363    83.681552    32.925220
H     45.713137    84.539556    32.536038
H     47.705453    85.948457    33.182908

   46.943480    86.257880    34.220377    -0.286100
   48.872054    86.862926    33.237912    -0.096000
   49.543630    86.855068    32.652865     0.268100
   49.092106    88.231534    33.806912    -0.272200
   49.313125    87.702210    35.532533     0.130400
   50.047916    88.760203    33.586091     0.112300
   50.654657    90.008573    34.720353     0.081300
   51.497962    88.007479    33.748367     0.081300
   50.258834    89.315920    32.262562    -0.651400
   51.023238    89.987530    32.212430     0.447400
   48.314839    88.260307    36.130627     0.811300
   47.081412    90.606104    31.380000    -0.813200
   47.290000    89.260000    35.250000    -0.813200
   46.578557    86.260316    34.605967    -0.257493
   47.308404    86.255444    33.834787     0.257493
   49.378119    87.130677    33.166239    -0.267874
   48.365989    86.595176    33.309584     0.267874

   46.943480    86.257880    34.220377
   48.872054    86.862926    33.237912
   49.543630    86.855068    32.652865
   49.092106    88.231534    33.806912
   49.313125    87.702210    35.532533
   50.047916    88.760203    33.586091
   50.654657    90.008573    34.720353
   51.497962    88.007479    33.748367
   50.258834    89.315920    32.262562
   51.023238    89.987530    32.212430
   48.314839    88.260307    36.130627
   47.081412    90.606104    31.380000
   47.290000    89.260000    35.250000
   46.578557    86.260316    34.605967
   47.308404    86.255444    33.834787
   49.378119    87.130677    33.166239
   48.365989    86.595176    33.309584


